% Auto-generated by scripts/generate_dzn.py
% problem_type   = regex
% instance       = regex_68
% source_json    = instances_json/2_high_blowup/regex_68.json
% blowup         = 13.5
% representation = DFA

mode = 0;

var_count = 32;
Q = 189;
S = 2;
q0 = 1;
F = {130, 131, 132, 133, 134, 135, 136, 137, 138, 139, 140, 141, 142, 143, 144, 145, 146, 147, 148, 149, 150, 151, 152, 153, 154, 155, 156, 157, 158, 159, 160, 161, 162, 163, 164, 165, 166, 167, 168, 169, 170, 171, 172, 173, 174, 175, 176, 177, 178, 179, 180, 181, 182, 183, 184, 185, 186, 187, 188, 189};
d_dfa = array2d(1..189, 1..2, [
  2, 1,
  2, 3,
  2, 4,
  6, 5,
  8, 7,
  8, 9,
  11, 10,
  11, 12,
  11, 13,
  15, 14,
  15, 16,
  15, 17,
  19, 18,
  21, 20,
  21, 22,
  21, 23,
  25, 24,
  27, 26,
  27, 28,
  30, 29,
  30, 31,
  30, 32,
  34, 33,
  36, 35,
  36, 37,
  39, 38,
  39, 40,
  39, 41,
  43, 42,
  43, 44,
  43, 45,
  47, 46,
  49, 48,
  49, 50,
  52, 51,
  52, 53,
  52, 54,
  56, 55,
  56, 57,
  56, 58,
  60, 59,
  62, 61,
  62, 63,
  62, 64,
  66, 65,
  68, 67,
  68, 69,
  71, 70,
  71, 72,
  71, 73,
  75, 74,
  75, 76,
  75, 77,
  79, 78,
  81, 80,
  81, 82,
  81, 83,
  85, 84,
  87, 86,
  87, 88,
  90, 89,
  90, 91,
  90, 92,
  94, 93,
  96, 95,
  96, 97,
  99, 98,
  99, 100,
  99, 101,
  103, 102,
  103, 104,
  103, 105,
  107, 106,
  109, 108,
  109, 110,
  109, 111,
  113, 112,
  115, 114,
  115, 116,
  118, 117,
  118, 119,
  118, 120,
  122, 121,
  124, 123,
  124, 125,
  127, 126,
  127, 128,
  127, 129,
  131, 130,
  131, 132,
  131, 133,
  135, 134,
  137, 136,
  137, 138,
  140, 139,
  140, 141,
  140, 142,
  144, 143,
  144, 145,
  144, 146,
  148, 147,
  150, 149,
  150, 151,
  150, 152,
  154, 153,
  156, 155,
  156, 157,
  159, 158,
  159, 160,
  159, 161,
  163, 162,
  165, 164,
  165, 166,
  168, 167,
  168, 169,
  168, 170,
  172, 171,
  172, 173,
  172, 174,
  176, 175,
  178, 177,
  178, 179,
  181, 180,
  181, 182,
  181, 183,
  185, 184,
  185, 186,
  185, 187,
  189, 188,
  2, 1,
  2, 3,
  2, 4,
  6, 5,
  8, 7,
  8, 9,
  11, 10,
  11, 12,
  11, 13,
  15, 14,
  15, 16,
  15, 17,
  19, 18,
  21, 20,
  21, 22,
  21, 23,
  25, 24,
  27, 26,
  27, 28,
  30, 29,
  30, 31,
  30, 32,
  34, 33,
  36, 35,
  36, 37,
  39, 38,
  39, 40,
  39, 41,
  43, 42,
  43, 44,
  43, 45,
  47, 46,
  49, 48,
  49, 50,
  52, 51,
  52, 53,
  52, 54,
  56, 55,
  56, 57,
  56, 58,
  60, 59,
  62, 61,
  62, 63,
  62, 64,
  66, 65,
  68, 67,
  68, 69,
  71, 70,
  71, 72,
  71, 73,
  75, 74,
  75, 76,
  75, 77,
  79, 78,
  81, 80,
  81, 82,
  81, 83,
  85, 84,
  87, 86,
  87, 88
]);
d_nfa = array2d(1..189, 1..2, [
  {}, {},
  {}, {},
  {}, {},
  {}, {},
  {}, {},
  {}, {},
  {}, {},
  {}, {},
  {}, {},
  {}, {},
  {}, {},
  {}, {},
  {}, {},
  {}, {},
  {}, {},
  {}, {},
  {}, {},
  {}, {},
  {}, {},
  {}, {},
  {}, {},
  {}, {},
  {}, {},
  {}, {},
  {}, {},
  {}, {},
  {}, {},
  {}, {},
  {}, {},
  {}, {},
  {}, {},
  {}, {},
  {}, {},
  {}, {},
  {}, {},
  {}, {},
  {}, {},
  {}, {},
  {}, {},
  {}, {},
  {}, {},
  {}, {},
  {}, {},
  {}, {},
  {}, {},
  {}, {},
  {}, {},
  {}, {},
  {}, {},
  {}, {},
  {}, {},
  {}, {},
  {}, {},
  {}, {},
  {}, {},
  {}, {},
  {}, {},
  {}, {},
  {}, {},
  {}, {},
  {}, {},
  {}, {},
  {}, {},
  {}, {},
  {}, {},
  {}, {},
  {}, {},
  {}, {},
  {}, {},
  {}, {},
  {}, {},
  {}, {},
  {}, {},
  {}, {},
  {}, {},
  {}, {},
  {}, {},
  {}, {},
  {}, {},
  {}, {},
  {}, {},
  {}, {},
  {}, {},
  {}, {},
  {}, {},
  {}, {},
  {}, {},
  {}, {},
  {}, {},
  {}, {},
  {}, {},
  {}, {},
  {}, {},
  {}, {},
  {}, {},
  {}, {},
  {}, {},
  {}, {},
  {}, {},
  {}, {},
  {}, {},
  {}, {},
  {}, {},
  {}, {},
  {}, {},
  {}, {},
  {}, {},
  {}, {},
  {}, {},
  {}, {},
  {}, {},
  {}, {},
  {}, {},
  {}, {},
  {}, {},
  {}, {},
  {}, {},
  {}, {},
  {}, {},
  {}, {},
  {}, {},
  {}, {},
  {}, {},
  {}, {},
  {}, {},
  {}, {},
  {}, {},
  {}, {},
  {}, {},
  {}, {},
  {}, {},
  {}, {},
  {}, {},
  {}, {},
  {}, {},
  {}, {},
  {}, {},
  {}, {},
  {}, {},
  {}, {},
  {}, {},
  {}, {},
  {}, {},
  {}, {},
  {}, {},
  {}, {},
  {}, {},
  {}, {},
  {}, {},
  {}, {},
  {}, {},
  {}, {},
  {}, {},
  {}, {},
  {}, {},
  {}, {},
  {}, {},
  {}, {},
  {}, {},
  {}, {},
  {}, {},
  {}, {},
  {}, {},
  {}, {},
  {}, {},
  {}, {},
  {}, {},
  {}, {},
  {}, {},
  {}, {},
  {}, {},
  {}, {},
  {}, {},
  {}, {},
  {}, {},
  {}, {},
  {}, {},
  {}, {},
  {}, {},
  {}, {},
  {}, {},
  {}, {},
  {}, {},
  {}, {},
  {}, {},
  {}, {},
  {}, {},
  {}, {},
  {}, {}
]);
